173
0 138 55 155 153 88 44 108 130 92 
116 4 136 152 17 95 41 48 97 76 
151 43 38 162 29 61 96 27 106 28 
163 158 113 111 65 72 67 129 135 131 
124 142 58 107 121 98 99 102 166 157 
110 126 69 161 103 144 23 160 63 20 
149 6 150 66 141 36 159 85 21 84 
105 11 120 25 118 140 134 53 87 146 
167 80 5 37 100 93 78 62 137 52 
18 74 82 1 68 70 127 56 46 60 
12 119 143 86 125 8 128 73 2 132 
145 32 49 39 165 45 172 14 164 64 
19 47 71 31 50 112 22 59 89 54 
9 40 115 117 123 114 10 42 122 13 
168 83 77 16 156 169 171 7 139 170 
51 30 3 33 35 91 26 75 24 90 
34 15 81 147 101 133 154 57 148 109 
79 94 104 
